000 000 000 000 -99 000 000 000 000 000 -99 -99 000 -99 000 -99 -99 -99 000 000 001 000 000 000 000 000 -99 -99 -99 -99 -99
000 000 000 000 000 000 000 000 000 000 -99 -99 -99 -99 000 000 -99 -99 -99 000 001 000 000 000 000 000 -99 -99 -99 -99 -99
000 000 000 000 000 000 000 000 000 001 000 -99 -99 -99 000 000 -99 -99 000 000 000 000 000 000 000 000 -99 000 000 -99 -99
000 000 000 000 000 000 000 000 000 001 000 000 000 -99 -99 000 -99 -99 000 000 000 000 000 000 000 000 -99 000 -99 -99 001
000 000 000 000 -99 000 000 000 000 001 000 000 000 000 -99 -99 -99 000 000 000 000 000 000 000 000 000 000 000 000 001 001
000 001 000 000 000 000 000 000 000 001 000 000 000 000 -99 -99 -99 000 000 000 000 000 000 000 001 000 000 000 001 001 002
000 001 000 000 000 000 000 000 000 001 000 000 000 000 000 -99 000 000 000 000 000 000 000 000 001 000 000 001 002 004 004
000 000 000 000 000 000 000 000 000 002 003 000 000 000 000 -99 000 000 000 000 000 000 000 000 001 001 000 002 003 010 005
000 000 000 000 000 000 000 000 000 002 008 001 000 000 000 000 -99 000 000 000 000 000 000 001 002 002 001 003 004 007 008
000 000 000 000 000 000 000 000 000 001 017 002 001 000 -99 -99 000 000 000 000 000 000 000 001 001 005 004 004 006 014 010
000 000 000 000 000 000 000 000 000 001 006 004 001 000 000 -99 000 000 000 000 -99 000 000 002 005 008 006 006 007 013 007
002 000 000 000 000 000 000 000 000 000 003 005 000 000 -99 -99 000 000 000 000 -99 000 001 001 003 006 006 007 008 010 006
001 000 000 000 000 000 000 000 000 000 001 002 000 000 000 -99 000 000 000 000 000 -99 001 001 001 001 004 005 006 006 003
001 001 001 000 000 000 000 000 -99 000 000 000 000 000 -99 -99 000 000 000 000 -99 -99 -99 001 000 000 000 001 001 002 001
001 001 001 000 000 000 000 -99 -99 000 000 000 000 000 -99 000 000 -99 -99 -99 -99 -99 -99 000 000 000 000 000 000 000 000
001 001 000 000 000 000 000 000 000 -99 000 -99 -99 -99 -99 000 -99 -99 -99 -99 -99 -99 000 000 000 000 000 000 000 000 000
000 000 000 000 000 000 000 000 000 -99 -99 -99 -99 -99 000 000 -99 000 -99 -99 -99 -99 -99 000 000 000 000 000 000 000 000
000 000 000 000 000 000 000 000 000 -99 -99 -99 -99 -99 000 000 000 000 -99 -99 -99 000 -99 000 000 000 -99 -99 000 000 000
000 000 000 000 000 000 000 000 000 -99 -99 -99 -99 -99 000 000 000 000 000 -99 -99 000 000 000 000 000 -99 -99 000 000 -99
000 000 000 000 000 000 000 000 000 -99 000 000 -99 -99 000 -99 000 000 000 -99 000 000 000 -99 -99 -99 -99 -99 -99 -99 -99
000 000 000 000 000 000 -99 000 000 000 000 000 -99 -99 000 -99 000 000 000 -99 000 000 000 -99 -99 -99 -99 -99 -99 -99 -99
000 000 000 000 000 000 000 000 000 000 -99 -99 -99 -99 000 000 000 000 000 000 000 000 000 -99 -99 -99 -99 -99 -99 -99 -99
000 000 000 000 000 000 000 000 000 000 000 -99 -99 -99 000 000 000 000 000 000 000 000 000 -99 -99 -99 -99 -99 -99 -99 -99
000 000 000 000 000 000 000 000 000 -99 -99 -99 000 000 000 000 000 000 000 000 000 000 000 -99 -99 -99 -99 -99 -99 -99 -99
000 000 000 000 000 000 000 000 000 -99 000 000 -99 000 000 000 000 000 000 000 000 000 000 -99 -99 -99 -99 -99 -99 -99 -99
000 000 000 000 000 000 000 000 000 000 -99 000 -99 000 000 000 000 000 000 000 000 000 000 -99 -99 -99 -99 -99 -99 -99 000
000 000 000 000 000 000 000 000 000 000 -99 000 -99 000 000 000 000 000 000 -99 000 000 000 -99 -99 -99 -99 -99 -99 -99 000
000 000 000 000 000 000 000 000 000 -99 -99 -99 -99 -99 -99 000 000 000 000 -99 000 000 000 -99 -99 -99 -99 -99 -99 -99 000
000 000 000 000 000 000 000 000 000 000 -99 -99 -99 000 000 000 000 000 000 000 000 000 -99 -99 -99 -99 -99 -99 -99 -99 -99
000 000 000 000 000 000 000 000 000 000 000 -99 -99 -99 000 000 000 000 000 000 000 000 -99 -99 -99 -99 -99 -99 -99 -99 -99
000 000 000 000 000 000 000 000 000 000 000 -99 -99 000 000 000 000 000 000 000 000 000 -99 -99 -99 -99 -99 -99 -99 -99 -99
-99 000 000 000 000 000 000 000 000 -99 -99 -99 -99 -99 -99 000 000 000 000 -99 000 000 -99 -99 000 000 -99 -99 000 -99 -99
-99 000 000 000 000 000 000 000 000 -99 -99 -99 -99 -99 -99 000 000 000 000 -99 -99 -99 000 -99 000 000 000 000 000 000 -99
-99 -99 000 000 000 000 000 000 000 -99 -99 -99 -99 -99 000 000 000 000 000 -99 -99 000 000 -99 000 000 000 000 000 000 -99
-99 000 000 000 000 000 000 -99 -99 000 -99 -99 -99 -99 000 000 000 -99 -99 000 000 -99 000 -99 000 000 000 000 000 000 000
000 000 000 000 000 000 -99 000 000 000 -99 -99 -99 000 000 000 000 000 000 000 000 000 000 -99 000 000 000 000 000 000 000
000 000 000 000 000 000 -99 000 000 000 000 -99 -99 000 000 000 000 000 000 000 000 -99 -99 -99 000 000 000 000 000 000 000
000 -99 -99 -99 000 000 000 000 000 -99 -99 -99 -99 000 000 000 000 000 000 -99 000 000 -99 000 000 000 000 000 -99 -99 -99
000 000 -99 -99 000 000 000 -99 -99 -99 -99 -99 -99 000 000 000 000 000 -99 -99 000 000 000 000 000 000 000 -99 -99 -99 -99
-99 000 000 000 000 000 000 -99 -99 -99 -99 000 000 000 000 000 000 000 -99 -99 000 -99 000 000 -99 000 000 -99 -99 -99 -99
000 000 000 000 000 000 000 -99 -99 -99 000 000 000 000 000 000 000 -99 -99 000 000 -99 -99 000 -99 000 000 -99 -99 -99 000
000 000 -99 000 -99 000 000 000 -99 000 000 000 000 000 000 000 -99 -99 000 000 000 -99 -99 -99 000 -99 -99 -99 -99 -99 000
000 000 -99 -99 -99 -99 000 000 000 000 000 000 000 000 000 000 000 -99 000 000 000 -99 -99 -99 000 000 -99 -99 -99 -99 -99
-99 -99 -99 -99 -99 000 000 000 000 000 000 000 000 000 000 000 -99 000 000 000 000 000 -99 000 000 000 -99 -99 -99 -99 -99
-99 -99 -99 -99 -99 000 000 000 000 000 000 000 000 000 000 000 000 000 000 000 000 000 -99 000 000 -99 000 000 -99 -99 -99
000 000 000 000 000 000 000 000 000 000 000 000 000 000 000 -99 000 000 000 000 000 000 000 000 000 -99 000 000 -99 -99 -99
000 000 000 000 000 000 000 000 000 000 000 000 000 000 000 -99 -99 -99 000 000 000 000 000 000 000 000 000 000 -99 -99 -99
000 000 000 -99 000 000 000 000 000 000 000 000 000 000 000 -99 -99 000 -99 000 000 000 000 000 000 000 000 000 -99 -99 -99
000 000 000 -99 000 000 000 000 000 000 000 000 000 000 000 -99 -99 000 000 000 000 000 000 000 000 000 000 -99 -99 -99 -99
000 000 000 000 000 000 000 000 000 000 000 000 000 000 -99 -99 -99 000 000 000 000 000 000 000 000 000 000 -99 -99 -99 -99
-99 -99 000 000 000 000 000 000 000 000 000 000 000 000 000 -99 -99 000 000 000 000 000 000 000 000 000 -99 -99 -99 -99 -99
-99 -99 000 000 000 000 000 000 000 000 000 000 000 -99 -99 -99 000 000 000 000 000 000 000 000 000 000 -99 -99 -99 -99 -99
-99 000 000 000 000 000 000 000 000 000 000 -99 000 000 000 000 000 000 000 000 000 000 000 000 000 000 -99 -99 -99 -99 -99
-99 -99 000 000 000 000 000 000 000 000 000 -99 -99 000 000 000 000 000 000 000 000 000 000 000 000 000 -99 -99 -99 -99 -99
-99 000 000 000 000 000 000 000 000 000 -99 -99 -99 000 000 000 000 000 000 000 000 000 000 000 000 000 000 -99 -99 -99 -99
